c CNF
c from Selman's wff generator
p cnf 200  1700
1.0 -23 -138 0
1.0 23 50 0
1.0 -46 -107 0
1.0 107 53 0
1.0 -28 -137 0
1.0 99 -25 0
1.0 121 171 0
1.0 29 40 0
1.0 -178 -38 0
1.0 87 -17 0
1.0 124 199 0
1.0 -52 97 0
1.0 34 -51 0
1.0 75 -101 0
1.0 72 95 0
1.0 -135 -68 0
1.0 -106 -124 0
1.0 -141 152 0
1.0 151 180 0
1.0 77 -20 0
1.0 71 -159 0
1.0 -59 -122 0
1.0 17 -149 0
1.0 16 -181 0
1.0 -105 173 0
1.0 -125 38 0
1.0 17 2 0
1.0 22 160 0
1.0 118 -44 0
1.0 -165 -177 0
1.0 -125 -137 0
1.0 117 193 0
1.0 166 175 0
1.0 -12 175 0
1.0 -177 -45 0
1.0 4 -124 0
1.0 168 -127 0
1.0 -103 5 0
1.0 -141 43 0
1.0 36 30 0
1.0 5 145 0
1.0 120 58 0
1.0 102 -167 0
1.0 91 184 0
1.0 -110 125 0
1.0 130 101 0
1.0 -144 -8 0
1.0 -37 6 0
1.0 151 72 0
1.0 -129 103 0
1.0 -69 -60 0
1.0 43 -163 0
1.0 -88 6 0
1.0 107 3 0
1.0 11 14 0
1.0 20 -8 0
1.0 79 146 0
1.0 48 -6 0
1.0 65 -174 0
1.0 137 93 0
1.0 98 23 0
1.0 26 128 0
1.0 142 -82 0
1.0 -89 -172 0
1.0 -117 -171 0
1.0 176 12 0
1.0 -186 -157 0
1.0 -50 -6 0
1.0 -29 188 0
1.0 116 4 0
1.0 85 -174 0
1.0 -145 149 0
1.0 120 115 0
1.0 -127 -108 0
1.0 65 -83 0
1.0 89 -181 0
1.0 -168 11 0
1.0 -15 63 0
1.0 36 -158 0
1.0 106 14 0
1.0 -128 67 0
1.0 -175 57 0
1.0 -139 1 0
1.0 -181 -11 0
1.0 22 117 0
1.0 -179 172 0
1.0 -130 8 0
1.0 21 -35 0
1.0 102 182 0
1.0 -38 -169 0
1.0 170 -66 0
1.0 77 149 0
1.0 -66 132 0
1.0 103 68 0
1.0 75 52 0
1.0 87 -128 0
1.0 109 -46 0
1.0 -14 -179 0
1.0 -44 -127 0
1.0 76 -33 0
1.0 -164 150 0
1.0 18 43 0
1.0 -95 -165 0
1.0 -92 29 0
1.0 -74 33 0
1.0 11 70 0
1.0 -197 4 0
1.0 36 -191 0
1.0 141 -198 0
1.0 41 -163 0
1.0 -128 35 0
1.0 64 -85 0
1.0 118 -167 0
1.0 -36 95 0
1.0 -98 -157 0
1.0 -147 118 0
1.0 115 -198 0
1.0 160 94 0
1.0 -129 -6 0
1.0 -91 126 0
1.0 -92 -152 0
1.0 -47 -119 0
1.0 75 64 0
1.0 -182 10 0
1.0 8 -154 0
1.0 48 -142 0
1.0 -147 159 0
1.0 84 -95 0
1.0 -47 180 0
1.0 99 -63 0
1.0 -126 -114 0
1.0 124 -105 0
1.0 58 -54 0
1.0 196 -151 0
1.0 -110 -47 0
1.0 -142 -23 0
1.0 3 -72 0
1.0 134 116 0
1.0 -29 -70 0
1.0 174 169 0
1.0 -23 180 0
1.0 -131 17 0
1.0 64 138 0
1.0 -161 -1 0
1.0 73 72 0
1.0 187 138 0
1.0 -7 -31 0
1.0 200 50 0
1.0 30 -148 0
1.0 -164 200 0
1.0 138 32 0
1.0 33 -23 0
1.0 -94 125 0
1.0 62 174 0
1.0 5 64 0
1.0 114 -61 0
1.0 -8 -66 0
1.0 -66 102 0
1.0 -133 -28 0
1.0 51 -162 0
1.0 86 -180 0
1.0 154 -121 0
1.0 -184 66 0
1.0 126 -187 0
1.0 -52 -142 0
1.0 -44 -101 0
1.0 -129 -22 0
1.0 -183 12 0
1.0 191 -149 0
1.0 -69 33 0
1.0 -99 62 0
1.0 -49 189 0
1.0 131 -62 0
1.0 -162 138 0
1.0 159 -92 0
1.0 103 193 0
1.0 141 26 0
1.0 58 -139 0
1.0 -1 12 0
1.0 -1 -138 0
1.0 -199 -166 0
1.0 103 56 0
1.0 148 120 0
1.0 -112 11 0
1.0 36 181 0
1.0 120 -125 0
1.0 -137 -30 0
1.0 168 -116 0
1.0 -82 -173 0
1.0 29 -177 0
1.0 97 45 0
1.0 56 169 0
1.0 -150 124 0
1.0 -49 -33 0
1.0 -63 156 0
1.0 -72 -189 0
1.0 -162 -122 0
1.0 -99 -181 0
1.0 26 190 0
1.0 -159 -64 0
1.0 -188 155 0
1.0 188 165 0
1.0 121 -140 0
1.0 -129 75 0
1.0 196 82 0
1.0 62 44 0
1.0 -34 -92 0
1.0 156 -138 0
1.0 -92 76 0
1.0 -41 -197 0
1.0 -137 8 0
1.0 -82 97 0
1.0 -178 33 0
1.0 -77 -61 0
1.0 -152 -92 0
1.0 29 -1 0
1.0 -77 -26 0
1.0 23 -128 0
1.0 135 29 0
1.0 125 -178 0
1.0 -11 65 0
1.0 -125 67 0
1.0 -159 -98 0
1.0 -98 -32 0
1.0 58 107 0
1.0 35 -167 0
1.0 -195 -62 0
1.0 40 77 0
1.0 -142 163 0
1.0 -30 -133 0
1.0 -30 -125 0
1.0 -157 82 0
1.0 189 192 0
1.0 -158 -132 0
1.0 194 176 0
1.0 53 -93 0
1.0 55 19 0
1.0 151 -2 0
1.0 -127 47 0
1.0 129 -11 0
1.0 -2 -189 0
1.0 -120 -131 0
1.0 -107 -182 0
1.0 -74 -28 0
1.0 46 -12 0
1.0 -13 -85 0
1.0 131 87 0
1.0 -97 117 0
1.0 106 116 0
1.0 -47 -167 0
1.0 -149 84 0
1.0 -111 -63 0
1.0 -74 164 0
1.0 48 -130 0
1.0 16 -47 0
1.0 163 14 0
1.0 129 -66 0
1.0 -33 -31 0
1.0 114 38 0
1.0 -100 -154 0
1.0 117 -133 0
1.0 -63 86 0
1.0 -132 180 0
1.0 -194 -1 0
1.0 66 55 0
1.0 85 -24 0
1.0 61 -83 0
1.0 -36 -4 0
1.0 -136 -195 0
1.0 80 59 0
1.0 -39 68 0
1.0 -69 -67 0
1.0 122 51 0
1.0 74 -112 0
1.0 195 28 0
1.0 -31 -30 0
1.0 -24 -99 0
1.0 -158 -43 0
1.0 111 -21 0
1.0 -88 183 0
1.0 33 -145 0
1.0 57 19 0
1.0 46 136 0
1.0 165 -63 0
1.0 162 -8 0
1.0 -51 -7 0
1.0 -27 -143 0
1.0 -125 -52 0
1.0 197 136 0
1.0 -154 -104 0
1.0 39 185 0
1.0 -48 119 0
1.0 -127 -82 0
1.0 -88 -42 0
1.0 185 -78 0
1.0 130 -150 0
1.0 -85 130 0
1.0 33 84 0
1.0 68 -115 0
1.0 -34 -64 0
1.0 -146 51 0
1.0 -92 77 0
1.0 -155 175 0
1.0 125 51 0
1.0 181 190 0
1.0 73 -86 0
1.0 1 157 0
1.0 -21 -180 0
1.0 -30 -133 0
1.0 -9 -146 0
1.0 121 182 0
1.0 33 57 0
1.0 46 -101 0
1.0 187 -109 0
1.0 66 115 0
1.0 94 -15 0
1.0 147 -50 0
1.0 -195 -42 0
1.0 -23 164 0
1.0 21 14 0
1.0 -115 -94 0
1.0 3 43 0
1.0 -158 108 0
1.0 -123 4 0
1.0 54 20 0
1.0 -61 142 0
1.0 -106 -125 0
1.0 -138 7 0
1.0 -100 -176 0
1.0 -18 -42 0
1.0 149 123 0
1.0 -127 -2 0
1.0 22 165 0
1.0 -106 192 0
1.0 -116 105 0
1.0 -112 128 0
1.0 -103 -60 0
1.0 101 82 0
1.0 -5 -123 0
1.0 -125 -61 0
1.0 26 -138 0
1.0 -129 193 0
1.0 98 79 0
1.0 6 -3 0
1.0 62 -132 0
1.0 14 124 0
1.0 -47 -132 0
1.0 -193 59 0
1.0 -196 -143 0
1.0 -136 91 0
1.0 169 -64 0
1.0 66 -60 0
1.0 192 111 0
1.0 35 100 0
1.0 32 171 0
1.0 29 168 0
1.0 -111 190 0
1.0 81 115 0
1.0 178 119 0
1.0 -179 -106 0
1.0 -17 60 0
1.0 -159 -197 0
1.0 168 -184 0
1.0 151 55 0
1.0 -44 -167 0
1.0 -81 185 0
1.0 -104 197 0
1.0 102 -72 0
1.0 -131 26 0
1.0 23 -102 0
1.0 -85 93 0
1.0 147 -5 0
1.0 -171 3 0
1.0 -187 88 0
1.0 -84 -11 0
1.0 -83 24 0
1.0 -49 73 0
1.0 174 182 0
1.0 74 46 0
1.0 50 190 0
1.0 193 -126 0
1.0 13 182 0
1.0 192 41 0
1.0 64 -186 0
1.0 -59 189 0
1.0 171 44 0
1.0 89 -185 0
1.0 -174 -76 0
1.0 -1 31 0
1.0 -12 13 0
1.0 54 -192 0
1.0 177 164 0
1.0 153 -12 0
1.0 -56 -158 0
1.0 142 -31 0
1.0 106 -42 0
1.0 -72 26 0
1.0 39 30 0
1.0 21 -163 0
1.0 127 37 0
1.0 49 -99 0
1.0 56 -168 0
1.0 -198 -132 0
1.0 173 193 0
1.0 -18 130 0
1.0 -159 -14 0
1.0 -177 -155 0
1.0 -192 8 0
1.0 -106 -184 0
1.0 -152 -192 0
1.0 123 71 0
1.0 -64 63 0
1.0 -192 -69 0
1.0 -82 85 0
1.0 -40 104 0
1.0 111 145 0
1.0 -129 13 0
1.0 5 -138 0
1.0 9 83 0
1.0 -145 -163 0
1.0 31 -92 0
1.0 -177 16 0
1.0 119 133 0
1.0 78 117 0
1.0 130 -25 0
1.0 163 -115 0
1.0 197 -82 0
1.0 45 196 0
1.0 -88 166 0
1.0 181 158 0
1.0 -91 -126 0
1.0 -42 -176 0
1.0 -1 -59 0
1.0 -174 -165 0
1.0 -47 176 0
1.0 -172 191 0
1.0 -157 -153 0
1.0 111 1 0
1.0 -126 -166 0
1.0 -142 139 0
1.0 -43 106 0
1.0 40 145 0
1.0 -57 144 0
1.0 109 46 0
1.0 -167 -140 0
1.0 177 -172 0
1.0 141 61 0
1.0 200 27 0
1.0 133 -57 0
1.0 -1 103 0
1.0 -47 -174 0
1.0 19 -107 0
1.0 -47 188 0
1.0 -160 45 0
1.0 -106 -48 0
1.0 -75 65 0
1.0 -122 -198 0
1.0 -100 -165 0
1.0 -138 -82 0
1.0 -189 118 0
1.0 106 92 0
1.0 -137 22 0
1.0 -70 -147 0
1.0 -12 -96 0
1.0 93 -128 0
1.0 -93 33 0
1.0 -115 -40 0
1.0 -157 126 0
1.0 -18 -196 0
1.0 -17 92 0
1.0 39 145 0
1.0 -40 -180 0
1.0 -108 -37 0
1.0 70 -61 0
1.0 100 15 0
1.0 -141 -27 0
1.0 -22 46 0
1.0 -137 -109 0
1.0 53 155 0
1.0 134 7 0
1.0 44 -146 0
1.0 7 -72 0
1.0 -87 186 0
1.0 -12 82 0
1.0 128 96 0
1.0 4 196 0
1.0 -150 64 0
1.0 -70 -172 0
1.0 118 -167 0
1.0 38 -123 0
1.0 -108 -194 0
1.0 -76 134 0
1.0 30 23 0
1.0 18 -106 0
1.0 169 38 0
1.0 -9 -175 0
1.0 141 -177 0
1.0 -100 80 0
1.0 -74 -51 0
1.0 -185 78 0
1.0 101 -18 0
1.0 123 136 0
1.0 -174 -135 0
1.0 -109 81 0
1.0 58 -159 0
1.0 -39 -129 0
1.0 180 -91 0
1.0 -169 11 0
1.0 -28 -23 0
1.0 159 -71 0
1.0 -5 -170 0
1.0 -51 -24 0
1.0 182 191 0
1.0 -120 29 0
1.0 119 191 0
1.0 -2 40 0
1.0 -63 142 0
1.0 -13 20 0
1.0 -190 68 0
1.0 -92 94 0
1.0 85 12 0
1.0 -40 -23 0
1.0 13 166 0
1.0 5 2 0
1.0 144 -22 0
1.0 42 -173 0
1.0 104 -72 0
1.0 19 73 0
1.0 165 -85 0
1.0 -188 -29 0
1.0 -75 13 0
1.0 56 25 0
1.0 -113 -177 0
1.0 149 151 0
1.0 22 63 0
1.0 136 130 0
1.0 15 139 0
1.0 -167 85 0
1.0 -98 -114 0
1.0 139 138 0
1.0 114 150 0
1.0 -100 -68 0
1.0 -131 164 0
1.0 -94 -30 0
1.0 -169 -51 0
1.0 -136 67 0
1.0 -181 -94 0
1.0 -32 -17 0
1.0 166 174 0
1.0 -42 -122 0
1.0 85 -147 0
1.0 176 -2 0
1.0 53 -197 0
1.0 64 57 0
1.0 -151 -7 0
1.0 -24 -132 0
1.0 106 -134 0
1.0 -55 -41 0
1.0 -187 -155 0
1.0 -156 3 0
1.0 -200 187 0
1.0 -44 -17 0
1.0 -24 68 0
1.0 199 -104 0
1.0 37 92 0
1.0 132 -169 0
1.0 123 148 0
1.0 151 -187 0
1.0 174 82 0
1.0 99 -118 0
1.0 -186 -190 0
1.0 93 -6 0
1.0 97 140 0
1.0 -108 52 0
1.0 -199 -26 0
1.0 13 -194 0
1.0 76 -110 0
1.0 28 17 0
1.0 -6 65 0
1.0 70 -86 0
1.0 -25 -49 0
1.0 -100 139 0
1.0 164 -69 0
1.0 -63 -144 0
1.0 -54 167 0
1.0 183 -8 0
1.0 72 -91 0
1.0 -176 114 0
1.0 -162 99 0
1.0 -38 93 0
1.0 -162 4 0
1.0 -148 141 0
1.0 107 73 0
1.0 80 -174 0
1.0 64 164 0
1.0 78 198 0
1.0 97 -171 0
1.0 -64 59 0
1.0 62 113 0
1.0 54 -9 0
1.0 82 -91 0
1.0 -64 -128 0
1.0 -92 -4 0
1.0 2 7 0
1.0 178 108 0
1.0 166 168 0
1.0 81 -114 0
1.0 123 47 0
1.0 -137 144 0
1.0 -72 -77 0
1.0 -81 96 0
1.0 -102 140 0
1.0 -48 13 0
1.0 180 186 0
1.0 -99 78 0
1.0 124 89 0
1.0 32 -189 0
1.0 66 -190 0
1.0 85 -198 0
1.0 137 -9 0
1.0 -22 186 0
1.0 171 38 0
1.0 115 56 0
1.0 144 -113 0
1.0 102 -161 0
1.0 -150 145 0
1.0 143 142 0
1.0 151 -88 0
1.0 -73 60 0
1.0 -97 35 0
1.0 91 1 0
1.0 114 149 0
1.0 -110 90 0
1.0 35 -96 0
1.0 38 -116 0
1.0 -4 118 0
1.0 -177 133 0
1.0 168 32 0
1.0 33 -134 0
1.0 -82 -103 0
1.0 192 144 0
1.0 39 145 0
1.0 61 57 0
1.0 -174 -23 0
1.0 155 -61 0
1.0 -92 -106 0
1.0 39 -73 0
1.0 -175 -31 0
1.0 -175 163 0
1.0 108 -195 0
1.0 52 153 0
1.0 -175 -174 0
1.0 34 -198 0
1.0 104 -32 0
1.0 104 119 0
1.0 149 -176 0
1.0 -139 39 0
1.0 33 25 0
1.0 -177 -49 0
1.0 22 85 0
1.0 -82 -133 0
1.0 -165 29 0
1.0 -148 192 0
1.0 168 -193 0
1.0 -31 155 0
1.0 -180 -169 0
1.0 -17 56 0
1.0 140 189 0
1.0 121 74 0
1.0 -103 136 0
1.0 -128 101 0
1.0 94 -165 0
1.0 -119 154 0
1.0 122 -135 0
1.0 -190 -161 0
1.0 -149 70 0
1.0 -144 159 0
1.0 95 109 0
1.0 -9 -41 0
1.0 5 -118 0
1.0 72 -13 0
1.0 -147 -76 0
1.0 37 -108 0
1.0 178 -19 0
1.0 -178 10 0
1.0 118 -62 0
1.0 102 -9 0
1.0 126 -54 0
1.0 -67 52 0
1.0 -127 -122 0
1.0 -30 17 0
1.0 -35 3 0
1.0 12 -93 0
1.0 154 176 0
1.0 -185 -84 0
1.0 -137 193 0
1.0 45 -98 0
1.0 -20 167 0
1.0 183 82 0
1.0 85 181 0
1.0 73 113 0
1.0 88 82 0
1.0 -165 -45 0
1.0 -38 90 0
1.0 188 122 0
1.0 89 187 0
1.0 69 -109 0
1.0 90 -118 0
1.0 -30 -76 0
1.0 -157 -71 0
1.0 116 -172 0
1.0 62 129 0
1.0 50 -86 0
1.0 72 -110 0
1.0 18 -98 0
1.0 16 143 0
1.0 -18 -58 0
1.0 129 152 0
1.0 -123 -120 0
1.0 48 29 0
1.0 115 -88 0
1.0 -197 45 0
1.0 -142 -20 0
1.0 162 -192 0
1.0 -49 -164 0
1.0 116 51 0
1.0 170 17 0
1.0 -46 -56 0
1.0 -143 -151 0
1.0 -195 -73 0
1.0 93 77 0
1.0 68 -95 0
1.0 59 -188 0
1.0 39 115 0
1.0 131 -35 0
1.0 -91 141 0
1.0 -91 82 0
1.0 155 128 0
1.0 -4 114 0
1.0 -9 136 0
1.0 124 -81 0
1.0 -196 -54 0
1.0 -88 -195 0
1.0 136 38 0
1.0 -120 184 0
1.0 -111 -132 0
1.0 -46 23 0
1.0 -159 173 0
1.0 54 162 0
1.0 -15 -13 0
1.0 8 -76 0
1.0 -114 92 0
1.0 -75 -79 0
1.0 11 28 0
1.0 -51 84 0
1.0 57 -30 0
1.0 -192 133 0
1.0 -145 -133 0
1.0 9 -189 0
1.0 -80 -63 0
1.0 -141 -61 0
1.0 88 -37 0
1.0 -121 -116 0
1.0 146 -37 0
1.0 -169 -45 0
1.0 178 -50 0
1.0 -38 -158 0
1.0 20 -62 0
1.0 -122 9 0
1.0 -46 -119 0
1.0 -35 -95 0
1.0 -131 29 0
1.0 74 59 0
1.0 108 -76 0
1.0 34 146 0
1.0 7 -133 0
1.0 -141 -127 0
1.0 -45 87 0
1.0 181 -94 0
1.0 123 -176 0
1.0 34 -22 0
1.0 98 -85 0
1.0 -31 149 0
1.0 -81 199 0
1.0 125 -105 0
1.0 191 -159 0
1.0 53 -108 0
1.0 -83 -93 0
1.0 114 18 0
1.0 -103 -144 0
1.0 -92 -126 0
1.0 -125 136 0
1.0 40 2 0
1.0 161 68 0
1.0 -176 84 0
1.0 -176 158 0
1.0 -176 31 0
1.0 175 42 0
1.0 168 181 0
1.0 -117 -34 0
1.0 -36 -160 0
1.0 27 189 0
1.0 72 196 0
1.0 -154 -34 0
1.0 65 38 0
1.0 -80 19 0
1.0 -200 -145 0
1.0 178 80 0
1.0 40 60 0
1.0 49 -19 0
1.0 -15 -128 0
1.0 162 105 0
1.0 143 106 0
1.0 125 -170 0
1.0 114 9 0
1.0 -89 -114 0
1.0 -174 115 0
1.0 -134 -62 0
1.0 -190 -109 0
1.0 -14 -13 0
1.0 -119 40 0
1.0 -10 -48 0
1.0 56 -7 0
1.0 120 119 0
1.0 -33 -65 0
1.0 -127 -56 0
1.0 165 -29 0
1.0 -42 -41 0
1.0 81 113 0
1.0 160 168 0
1.0 -175 26 0
1.0 -145 -30 0
1.0 -94 102 0
1.0 -158 -57 0
1.0 86 -1 0
1.0 42 -34 0
1.0 147 -89 0
1.0 -57 25 0
1.0 -51 -79 0
1.0 -108 113 0
1.0 15 -116 0
1.0 172 158 0
1.0 -158 -194 0
1.0 -28 -71 0
1.0 160 135 0
1.0 159 199 0
1.0 78 -172 0
1.0 -84 176 0
1.0 91 8 0
1.0 -165 -164 0
1.0 -158 -104 0
1.0 -174 -45 0
1.0 -179 -37 0
1.0 -36 -195 0
1.0 167 151 0
1.0 -127 84 0
1.0 92 19 0
1.0 -182 -199 0
1.0 -102 101 0
1.0 145 -82 0
1.0 118 -158 0
1.0 153 -8 0
1.0 -158 164 0
1.0 -48 -117 0
1.0 -135 -180 0
1.0 178 174 0
1.0 -75 179 0
1.0 -60 -163 0
1.0 -120 4 0
1.0 -11 -198 0
1.0 162 159 0
1.0 -76 152 0
1.0 -131 -143 0
1.0 -117 -182 0
1.0 160 141 0
1.0 -104 153 0
1.0 156 -127 0
1.0 -124 86 0
1.0 45 -185 0
1.0 -136 41 0
1.0 -183 56 0
1.0 37 -160 0
1.0 101 100 0
1.0 52 11 0
1.0 -137 123 0
1.0 -9 107 0
1.0 -91 38 0
1.0 79 103 0
1.0 -159 -65 0
1.0 -25 -50 0
1.0 -149 6 0
1.0 16 -157 0
1.0 80 181 0
1.0 -87 -158 0
1.0 195 115 0
1.0 -18 -95 0
1.0 -160 -94 0
1.0 -143 163 0
1.0 169 -39 0
1.0 -196 99 0
1.0 -80 -149 0
1.0 -106 -105 0
1.0 -20 147 0
1.0 42 108 0
1.0 -2 -184 0
1.0 146 -94 0
1.0 133 -127 0
1.0 25 -36 0
1.0 185 166 0
1.0 -70 14 0
1.0 -160 165 0
1.0 73 138 0
1.0 121 187 0
1.0 -81 54 0
1.0 -180 80 0
1.0 -115 142 0
1.0 -107 -179 0
1.0 192 -181 0
1.0 -146 191 0
1.0 129 155 0
1.0 -142 110 0
1.0 163 -97 0
1.0 -177 174 0
1.0 -115 56 0
1.0 -34 181 0
1.0 -161 -64 0
1.0 -55 -130 0
1.0 85 16 0
1.0 126 149 0
1.0 46 81 0
1.0 -54 -178 0
1.0 -34 104 0
1.0 85 188 0
1.0 -52 -69 0
1.0 198 76 0
1.0 -92 123 0
1.0 -71 -155 0
1.0 -35 137 0
1.0 114 -51 0
1.0 155 45 0
1.0 33 106 0
1.0 -174 -36 0
1.0 111 81 0
1.0 3 162 0
1.0 -116 -125 0
1.0 61 -126 0
1.0 -177 -93 0
1.0 -138 -135 0
1.0 41 54 0
1.0 -89 -45 0
1.0 125 -40 0
1.0 -1 -21 0
1.0 146 188 0
1.0 -114 103 0
1.0 196 -102 0
1.0 -36 190 0
1.0 44 -157 0
1.0 -1 -76 0
1.0 115 -134 0
1.0 155 -51 0
1.0 -38 -97 0
1.0 199 -86 0
1.0 -187 61 0
1.0 51 31 0
1.0 187 -188 0
1.0 -64 -159 0
1.0 93 164 0
1.0 -14 123 0
1.0 19 53 0
1.0 139 -43 0
1.0 -103 -140 0
1.0 170 -46 0
1.0 -34 74 0
1.0 32 -56 0
1.0 -19 166 0
1.0 89 -118 0
1.0 -171 -85 0
1.0 127 137 0
1.0 -76 181 0
1.0 27 31 0
1.0 -104 -145 0
1.0 200 31 0
1.0 197 30 0
1.0 -148 -133 0
1.0 17 -117 0
1.0 -54 -60 0
1.0 -41 156 0
1.0 -186 175 0
1.0 120 -84 0
1.0 -114 -83 0
1.0 -113 188 0
1.0 -120 -187 0
1.0 103 -3 0
1.0 63 -52 0
1.0 -7 -58 0
1.0 33 -98 0
1.0 181 105 0
1.0 188 9 0
1.0 -196 -198 0
1.0 184 136 0
1.0 139 131 0
1.0 -182 -126 0
1.0 -184 75 0
1.0 -172 -62 0
1.0 167 -39 0
1.0 47 49 0
1.0 -46 13 0
1.0 -148 9 0
1.0 140 -156 0
1.0 -81 192 0
1.0 66 91 0
1.0 -152 -48 0
1.0 87 -35 0
1.0 -83 -125 0
1.0 -137 133 0
1.0 -142 70 0
1.0 25 -58 0
1.0 -49 -113 0
1.0 -4 -50 0
1.0 98 -141 0
1.0 -175 144 0
1.0 -69 93 0
1.0 26 -140 0
1.0 10 61 0
1.0 -118 -52 0
1.0 165 -110 0
1.0 -159 33 0
1.0 174 -195 0
1.0 139 158 0
1.0 51 190 0
1.0 130 -102 0
1.0 -162 92 0
1.0 143 -112 0
1.0 21 -127 0
1.0 160 -197 0
1.0 192 -77 0
1.0 -35 88 0
1.0 -78 149 0
1.0 -51 4 0
1.0 95 118 0
1.0 -30 138 0
1.0 65 19 0
1.0 -16 66 0
1.0 -143 -40 0
1.0 128 73 0
1.0 22 23 0
1.0 26 -159 0
1.0 -77 -177 0
1.0 -115 -103 0
1.0 122 -186 0
1.0 -51 -161 0
1.0 -1 -80 0
1.0 -152 -32 0
1.0 54 148 0
1.0 -106 -130 0
1.0 106 158 0
1.0 -61 -45 0
1.0 -30 2 0
1.0 163 -63 0
1.0 142 43 0
1.0 74 -27 0
1.0 174 111 0
1.0 41 -6 0
1.0 -164 151 0
1.0 195 166 0
1.0 -167 -126 0
1.0 188 -178 0
1.0 21 186 0
1.0 12 -88 0
1.0 199 27 0
1.0 -32 -127 0
1.0 77 152 0
1.0 117 25 0
1.0 150 -1 0
1.0 179 -107 0
1.0 92 -88 0
1.0 176 -114 0
1.0 140 -154 0
1.0 -81 -199 0
1.0 151 184 0
1.0 -8 -124 0
1.0 125 -164 0
1.0 -70 -161 0
1.0 49 195 0
1.0 -108 155 0
1.0 109 -13 0
1.0 -12 -183 0
1.0 167 -173 0
1.0 -97 178 0
1.0 -141 25 0
1.0 -186 25 0
1.0 20 -38 0
1.0 -192 -56 0
1.0 68 192 0
1.0 175 -34 0
1.0 -7 -69 0
1.0 -46 -45 0
1.0 -70 47 0
1.0 72 169 0
1.0 7 -146 0
1.0 1 191 0
1.0 -183 -187 0
1.0 20 189 0
1.0 -57 -11 0
1.0 56 -53 0
1.0 -100 -87 0
1.0 56 69 0
1.0 14 79 0
1.0 69 157 0
1.0 144 -32 0
1.0 -20 105 0
1.0 -116 -119 0
1.0 172 69 0
1.0 155 77 0
1.0 146 -102 0
1.0 -180 131 0
1.0 88 57 0
1.0 -89 -107 0
1.0 -11 -183 0
1.0 102 164 0
1.0 -33 -194 0
1.0 -70 184 0
1.0 -86 69 0
1.0 -199 147 0
1.0 -4 15 0
1.0 -121 -110 0
1.0 93 -185 0
1.0 149 -154 0
1.0 -147 10 0
1.0 194 166 0
1.0 -34 5 0
1.0 -152 -61 0
1.0 75 -35 0
1.0 -145 47 0
1.0 31 -184 0
1.0 -138 98 0
1.0 -108 -129 0
1.0 -95 -132 0
1.0 -137 127 0
1.0 187 80 0
1.0 114 90 0
1.0 136 -182 0
1.0 -166 -126 0
1.0 -24 -108 0
1.0 36 -87 0
1.0 19 -13 0
1.0 140 -19 0
1.0 -99 87 0
1.0 176 -43 0
1.0 25 -165 0
1.0 91 -25 0
1.0 132 -78 0
1.0 165 -76 0
1.0 -89 156 0
1.0 -175 181 0
1.0 67 141 0
1.0 -184 155 0
1.0 -120 33 0
1.0 -57 -89 0
1.0 -167 -168 0
1.0 -44 -54 0
1.0 -10 -52 0
1.0 33 115 0
1.0 -55 142 0
1.0 96 -46 0
1.0 -44 -26 0
1.0 149 -173 0
1.0 -129 -30 0
1.0 -144 -92 0
1.0 52 -175 0
1.0 32 -127 0
1.0 68 -60 0
1.0 106 -85 0
1.0 110 76 0
1.0 -49 -179 0
1.0 -9 -134 0
1.0 -26 151 0
1.0 126 -174 0
1.0 -100 -65 0
1.0 -124 199 0
1.0 -84 -23 0
1.0 99 -57 0
1.0 -36 25 0
1.0 -159 -85 0
1.0 36 -143 0
1.0 -117 106 0
1.0 -170 49 0
1.0 -48 -116 0
1.0 -138 98 0
1.0 -155 -174 0
1.0 199 -107 0
1.0 -192 30 0
1.0 -173 4 0
1.0 -109 106 0
1.0 -154 91 0
1.0 -6 -92 0
1.0 -190 -55 0
1.0 -29 161 0
1.0 -68 168 0
1.0 198 -126 0
1.0 129 73 0
1.0 -179 -166 0
1.0 -57 86 0
1.0 178 -66 0
1.0 -120 -184 0
1.0 -145 46 0
1.0 14 159 0
1.0 -85 157 0
1.0 30 42 0
1.0 -8 166 0
1.0 -51 74 0
1.0 -139 131 0
1.0 114 106 0
1.0 151 -181 0
1.0 -139 142 0
1.0 99 -157 0
1.0 -198 88 0
1.0 53 -75 0
1.0 -148 194 0
1.0 125 144 0
1.0 -149 -97 0
1.0 167 -145 0
1.0 119 92 0
1.0 129 134 0
1.0 69 -78 0
1.0 147 -170 0
1.0 100 176 0
1.0 120 103 0
1.0 -199 -35 0
1.0 179 66 0
1.0 -157 79 0
1.0 13 46 0
1.0 124 168 0
1.0 137 114 0
1.0 90 74 0
1.0 176 -115 0
1.0 -149 -74 0
1.0 139 11 0
1.0 -90 -197 0
1.0 -43 -80 0
1.0 47 -7 0
1.0 121 45 0
1.0 118 81 0
1.0 196 -96 0
1.0 169 -6 0
1.0 16 -96 0
1.0 92 -184 0
1.0 64 -191 0
1.0 197 -135 0
1.0 -179 114 0
1.0 -195 -146 0
1.0 -41 57 0
1.0 -62 6 0
1.0 -101 -121 0
1.0 -104 -191 0
1.0 181 -27 0
1.0 161 -171 0
1.0 85 22 0
1.0 167 26 0
1.0 83 -4 0
1.0 9 -135 0
1.0 -56 -5 0
1.0 -195 -29 0
1.0 -55 3 0
1.0 -174 48 0
1.0 -70 190 0
1.0 16 6 0
1.0 10 61 0
1.0 -196 63 0
1.0 67 30 0
1.0 59 -137 0
1.0 -140 -191 0
1.0 -38 -82 0
1.0 -72 107 0
1.0 -113 -187 0
1.0 -48 25 0
1.0 87 -69 0
1.0 99 -105 0
1.0 41 -53 0
1.0 44 197 0
1.0 -79 -64 0
1.0 170 131 0
1.0 118 -20 0
1.0 45 -145 0
1.0 14 -103 0
1.0 7 101 0
1.0 153 -137 0
1.0 133 121 0
1.0 -184 -66 0
1.0 -197 36 0
1.0 41 -79 0
1.0 -87 -191 0
1.0 -76 -110 0
1.0 -178 -43 0
1.0 71 -125 0
1.0 -2 58 0
1.0 19 128 0
1.0 164 177 0
1.0 -55 -91 0
1.0 -82 -188 0
1.0 -97 126 0
1.0 -168 62 0
1.0 187 -35 0
1.0 93 -4 0
1.0 -131 118 0
1.0 95 -157 0
1.0 47 -87 0
1.0 74 -20 0
1.0 145 -18 0
1.0 -80 32 0
1.0 67 -180 0
1.0 184 -109 0
1.0 27 -196 0
1.0 152 -106 0
1.0 -193 159 0
1.0 179 -12 0
1.0 30 -80 0
1.0 -112 -187 0
1.0 -167 -28 0
1.0 137 -8 0
1.0 3 -72 0
1.0 -178 -152 0
1.0 111 81 0
1.0 92 -71 0
1.0 151 48 0
1.0 35 5 0
1.0 -33 -179 0
1.0 -186 -14 0
1.0 -86 14 0
1.0 165 97 0
1.0 -177 68 0
1.0 -139 176 0
1.0 -23 21 0
1.0 25 193 0
1.0 172 -9 0
1.0 -23 -158 0
1.0 -171 -89 0
1.0 185 -3 0
1.0 71 174 0
1.0 149 -20 0
1.0 40 51 0
1.0 -44 87 0
1.0 -96 -148 0
1.0 106 117 0
1.0 5 -196 0
1.0 -199 22 0
1.0 195 -180 0
1.0 -199 177 0
1.0 -28 144 0
1.0 31 -25 0
1.0 172 56 0
1.0 -172 -68 0
1.0 -64 164 0
1.0 -186 -115 0
1.0 -94 9 0
1.0 -186 37 0
1.0 181 34 0
1.0 -58 168 0
1.0 -23 -179 0
1.0 -47 -59 0
1.0 -23 136 0
1.0 -50 -103 0
1.0 112 110 0
1.0 -147 -167 0
1.0 -1 194 0
1.0 161 -73 0
1.0 -52 193 0
1.0 52 149 0
1.0 84 -181 0
1.0 83 -69 0
1.0 179 -113 0
1.0 80 2 0
1.0 -195 -189 0
1.0 -62 -25 0
1.0 17 117 0
1.0 -66 -20 0
1.0 200 24 0
1.0 93 159 0
1.0 -72 -168 0
1.0 170 -47 0
1.0 -36 169 0
1.0 194 58 0
1.0 175 20 0
1.0 -39 21 0
1.0 -44 -71 0
1.0 30 -196 0
1.0 164 -2 0
1.0 49 84 0
1.0 -53 15 0
1.0 72 189 0
1.0 9 134 0
1.0 154 -74 0
1.0 -144 -5 0
1.0 200 -140 0
1.0 141 -126 0
1.0 9 191 0
1.0 -6 53 0
1.0 -42 162 0
1.0 96 8 0
1.0 82 181 0
1.0 -185 -179 0
1.0 -118 71 0
1.0 197 43 0
1.0 34 120 0
1.0 -172 173 0
1.0 135 39 0
1.0 47 -159 0
1.0 -140 -124 0
1.0 -102 151 0
1.0 22 57 0
1.0 100 -124 0
1.0 -44 89 0
1.0 62 -89 0
1.0 127 -91 0
1.0 -49 -104 0
1.0 -27 -56 0
1.0 -7 21 0
1.0 77 -24 0
1.0 -147 -70 0
1.0 158 81 0
1.0 169 33 0
1.0 123 -41 0
1.0 -144 -172 0
1.0 27 71 0
1.0 91 -44 0
1.0 -67 107 0
1.0 176 -51 0
1.0 -132 9 0
1.0 -41 -169 0
1.0 -10 -65 0
1.0 -37 93 0
1.0 164 20 0
1.0 64 -157 0
1.0 -64 163 0
1.0 -14 -148 0
1.0 156 -127 0
1.0 -96 -40 0
1.0 105 -95 0
1.0 188 -181 0
1.0 200 99 0
1.0 -56 -24 0
1.0 -186 -139 0
1.0 -87 132 0
1.0 59 -188 0
1.0 28 -200 0
1.0 94 117 0
1.0 97 76 0
1.0 -175 36 0
1.0 -59 155 0
1.0 94 -107 0
1.0 39 188 0
1.0 175 63 0
1.0 -62 -109 0
1.0 26 -7 0
1.0 83 68 0
1.0 103 -178 0
1.0 132 36 0
1.0 142 -51 0
1.0 38 29 0
1.0 91 -127 0
1.0 -36 149 0
1.0 -156 144 0
1.0 12 -200 0
1.0 177 -182 0
1.0 -17 -83 0
1.0 -133 -140 0
1.0 -169 16 0
1.0 142 -197 0
1.0 145 118 0
1.0 -61 21 0
1.0 -20 -32 0
1.0 -13 62 0
1.0 -144 40 0
1.0 180 -127 0
1.0 142 28 0
1.0 24 -17 0
1.0 134 -100 0
1.0 121 -7 0
1.0 -38 51 0
1.0 113 43 0
1.0 -83 68 0
1.0 195 -178 0
1.0 6 16 0
1.0 -32 -80 0
1.0 -180 67 0
1.0 73 -25 0
1.0 -76 -177 0
1.0 19 -42 0
1.0 -110 -175 0
1.0 153 -172 0
1.0 -187 59 0
1.0 -139 -185 0
1.0 52 -142 0
1.0 166 57 0
1.0 34 197 0
1.0 -39 -71 0
1.0 46 -115 0
1.0 -87 91 0
1.0 149 142 0
1.0 126 -74 0
1.0 -16 -22 0
1.0 79 -137 0
1.0 -133 -50 0
1.0 -121 -116 0
1.0 -31 -171 0
1.0 -62 119 0
1.0 60 -80 0
1.0 -153 -102 0
1.0 -123 64 0
1.0 -200 -171 0
1.0 -21 -76 0
1.0 -191 22 0
1.0 -193 72 0
1.0 190 126 0
1.0 6 -161 0
1.0 -62 -197 0
1.0 -61 75 0
1.0 -46 98 0
1.0 173 -95 0
1.0 -117 -116 0
1.0 -187 -121 0
1.0 46 25 0
1.0 185 61 0
1.0 58 -135 0
1.0 -10 16 0
1.0 -113 169 0
1.0 63 -128 0
1.0 43 32 0
1.0 153 -49 0
1.0 74 32 0
1.0 -92 -58 0
1.0 193 135 0
1.0 150 43 0
1.0 -11 176 0
1.0 104 -195 0
1.0 -27 -140 0
1.0 -189 182 0
1.0 -13 -26 0
1.0 84 25 0
1.0 160 -120 0
1.0 -163 -134 0
1.0 110 117 0
1.0 -112 -100 0
1.0 -40 135 0
1.0 116 -94 0
1.0 119 11 0
1.0 36 -87 0
1.0 -7 -156 0
1.0 -90 -74 0
1.0 191 -189 0
1.0 88 -171 0
1.0 -106 157 0
1.0 -50 -45 0
1.0 -55 183 0
1.0 70 49 0
1.0 5 188 0
1.0 62 186 0
1.0 -174 104 0
1.0 -74 -194 0
1.0 -150 -143 0
1.0 -187 150 0
1.0 -133 139 0
1.0 187 -17 0
1.0 5 122 0
1.0 -107 177 0
1.0 -80 -71 0
1.0 -65 129 0
1.0 71 132 0
1.0 82 182 0
1.0 120 -32 0
1.0 49 93 0
1.0 -15 -181 0
1.0 157 36 0
1.0 -107 -142 0
1.0 -71 -122 0
1.0 -54 -199 0
1.0 -180 99 0
1.0 130 -164 0
1.0 57 101 0
1.0 -82 150 0
1.0 186 193 0
1.0 135 64 0
1.0 -186 48 0
1.0 -46 147 0
1.0 -45 -122 0
1.0 -86 -129 0
1.0 30 -184 0
1.0 -133 -5 0
1.0 198 -25 0
1.0 -89 73 0
1.0 -121 -84 0
1.0 -30 86 0
1.0 8 116 0
1.0 44 2 0
1.0 -186 -48 0
1.0 52 135 0
1.0 -159 47 0
1.0 -119 118 0
1.0 1 33 0
1.0 -118 -197 0
1.0 112 -154 0
1.0 155 -52 0
1.0 99 -13 0
1.0 -148 -95 0
1.0 -141 181 0
1.0 98 72 0
1.0 -105 104 0
1.0 -100 33 0
1.0 -187 -164 0
1.0 16 -195 0
1.0 8 -139 0
1.0 33 -65 0
1.0 46 -12 0
1.0 84 -131 0
1.0 34 -170 0
1.0 -3 -156 0
1.0 -120 -111 0
1.0 106 -10 0
1.0 149 -115 0
1.0 -180 128 0
1.0 -140 186 0
1.0 117 -10 0
1.0 179 -20 0
1.0 -176 29 0
1.0 139 100 0
1.0 -110 80 0
1.0 195 -25 0
1.0 -153 192 0
1.0 -178 167 0
1.0 176 -125 0
1.0 -145 -127 0
1.0 155 106 0
1.0 -6 -45 0
1.0 -125 -95 0
1.0 120 12 0
1.0 -3 -92 0
1.0 59 78 0
1.0 -3 -117 0
1.0 44 -125 0
1.0 31 81 0
1.0 -125 30 0
1.0 -125 124 0
1.0 -135 -61 0
1.0 -153 79 0
1.0 157 -191 0
1.0 -108 -33 0
1.0 -158 -171 0
1.0 51 -41 0
1.0 71 -174 0
1.0 97 194 0
1.0 -54 154 0
1.0 33 -85 0
1.0 -76 -61 0
1.0 -94 53 0
1.0 24 82 0
1.0 123 -61 0
1.0 -35 -76 0
1.0 -70 -25 0
1.0 -179 130 0
1.0 14 145 0
1.0 5 149 0
1.0 -2 4 0
1.0 86 187 0
1.0 -47 151 0
1.0 26 187 0
1.0 11 -174 0
1.0 -103 -147 0
1.0 91 1 0
1.0 -149 -77 0
1.0 -81 -142 0
1.0 -128 -74 0
1.0 25 173 0
1.0 -159 -68 0
1.0 -41 -163 0
1.0 109 -158 0
1.0 159 -66 0
1.0 142 88 0
1.0 -30 -31 0
1.0 -105 -160 0
1.0 -133 187 0
1.0 54 124 0
1.0 87 -18 0
1.0 -176 -98 0
1.0 163 -90 0
1.0 -177 96 0
1.0 -127 113 0
1.0 -73 95 0
1.0 81 -137 0
1.0 61 -155 0
1.0 -172 -67 0
1.0 164 -136 0
1.0 26 121 0
1.0 17 -157 0
1.0 -70 -172 0
1.0 -66 -132 0
1.0 69 -41 0
1.0 196 -109 0
1.0 -175 -18 0
1.0 154 -196 0
1.0 -116 -97 0
